Running HiGHS 1.7.2 (git hash: 5ce7a2753): Copyright (c) 2024 HiGHS under MIT licence terms
Coefficient ranges:
  Matrix [1e+00, 1e+00]
  Cost   [1e+00, 1e+00]
  Bound  [1e+00, 1e+00]
  RHS    [1e+00, 1e+00]
Presolving model
31303 rows, 1312 cols, 63806 nonzeros  0s
16327 rows, 1312 cols, 33854 nonzeros  0s
4321 rows, 1310 cols, 24715 nonzeros  0s
4239 rows, 1310 cols, 24634 nonzeros  0s
Objective function is integral with scale 1

Solving MIP model with:
   4239 rows
   1310 cols (1310 binary, 0 integer, 0 implied int., 0 continuous)
   24634 nonzeros

        Nodes      |    B&B Tree     |            Objective Bounds              |  Dynamic Constraints |       Work      
     Proc. InQueue |  Leaves   Expl. | BestBound       BestSol              Gap |   Cuts   InLp Confl. | LpIters     Time

         0       0         0   0.00%   2               inf                  inf        0      0      0         0     0.4s
         0       0         0   0.00%   5.725320564     inf                  inf        0      0      4      7625     2.2s
 C       0       0         0   0.00%   5.789978116     13                55.46%        5      5    110      9525     4.6s
 L       0       0         0   0.00%   5.830794468     11                46.99%       14     14    110     11461    15.4s

5.3% inactive integer columns, restarting
Model after restart has 4167 rows, 1240 cols (1240 bin., 0 int., 0 impl., 0 cont.), and 23414 nonzeros

         0       0         0   0.00%   5.830794468     11                46.99%       14      0      0     30910    15.4s
         0       0         0   0.00%   5.830794468     11                46.99%       14     13      4     32250    16.0s

67.1% inactive integer columns, restarting
Model after restart has 1288 rows, 408 cols (408 bin., 0 int., 0 impl., 0 cont.), and 7414 nonzeros

         0       0         0   0.00%   6.171284838     11                43.90%        4      0      0     33198    16.6s
         0       0         0   0.00%   6.171284838     11                43.90%        4      4      6     34879    16.9s
        14       0         1   0.01%   6.684848664     11                39.23%       49     19     55    100227    24.5s
 T      23       0         5   0.02%   6.684848664     10                33.15%       52     19     94    100375    24.6s
       211      14        92   2.97%   8               10                20.00%     1374     18    738    142212    29.6s
       283      23       124   4.22%   8               10                20.00%     1912     31   1418    201228    35.2s
       432      25       199   4.31%   8               10                20.00%     2538     34   2073    251255    40.3s
       601      22       282   4.77%   8               10                20.00%     3004     28   2512    292373    45.3s

Restarting search from the root node
Model after restart has 910 rows, 361 cols (361 bin., 0 int., 0 impl., 0 cont.), and 5594 nonzeros

       954       0         0   0.00%   8               10                20.00%       37      0      0    337707    50.3s
       954       0         0   0.00%   8               10                20.00%       37     11      7    338478    50.3s
      1262      16       143   5.32%   8               10                20.00%     2180     35    723    395603    55.7s
      1507      33       256   9.16%   8               10                20.00%     2825     35   1639    450601    60.7s
      2028      62       503  11.28%   8               10                20.00%     3955     42   2925    519915    65.7s
      2524      92       736  12.61%   8               10                20.00%     4356     53   4347    589008    70.7s

        Nodes      |    B&B Tree     |            Objective Bounds              |  Dynamic Constraints |       Work      
     Proc. InQueue |  Leaves   Expl. | BestBound       BestSol              Gap |   Cuts   InLp Confl. | LpIters     Time

      3075     118       998  12.66%   8               10                20.00%     5173     38   5806    661283    76.0s
      3376     129      1143  12.82%   8               10                20.00%     5715     56   6839    777248    86.3s

Restarting search from the root node
Model after restart has 910 rows, 361 cols (361 bin., 0 int., 0 impl., 0 cont.), and 5594 nonzeros

      3670       0         0   0.00%   8               10                20.00%       62      0      0    816311    89.1s
      3670       0         0   0.00%   8               10                20.00%       62     19      7    816537    89.1s
      4062      14       185   8.29%   8               10                20.00%     3029     46    998    879442    94.1s
      4490      50       380   9.72%   8               10                20.00%     3512     58   2154    951391    99.2s
      4724      61       495  10.50%   8               10                20.00%     4180     67   3235     1025k   104.2s
      5227      85       734  11.08%   8               10                20.00%     4257     52   4534     1092k   109.2s
      5436      92       834  11.10%   8               10                20.00%     4361     66   5534     1165k   114.3s
      5825     123      1012  11.80%   8               10                20.00%     5113     67   6618     1235k   119.3s
      6292     152      1232  11.87%   8               10                20.00%     4949     58   7628     1303k   124.3s
      6774     173      1462  11.92%   8               10                20.00%     5111     66   8752     1371k   129.3s
      7103     194      1616  11.97%   8               10                20.00%     5143     74   9487     1430k   134.5s
      7508     222      1805  12.00%   8               10                20.00%     5368     73   9911     1523k   144.5s
      7876     239      1979  12.00%   8               10                20.00%     5455     85   9381     1571k   149.6s
      8261     264      2160  12.01%   8               10                20.00%     5403     77   9695     1619k   154.6s

Restarting search from the root node
Model after restart has 910 rows, 361 cols (361 bin., 0 int., 0 impl., 0 cont.), and 5594 nonzeros

      8310       0         0   0.00%   8               10                20.00%       77      0      0     1625k   155.2s
      8310       0         0   0.00%   8               10                20.00%       77     30      6     1625k   155.3s
      8520      13        95   5.49%   8               10                20.00%     3333     43   1005     1659k   160.4s
      8923      37       285   8.29%   8               10                20.00%     3343     65   2535     1724k   166.7s

        Nodes      |    B&B Tree     |            Objective Bounds              |  Dynamic Constraints |       Work      
     Proc. InQueue |  Leaves   Expl. | BestBound       BestSol              Gap |   Cuts   InLp Confl. | LpIters     Time

      9256      52       445   8.67%   8               10                20.00%     3766     79   3695     1775k   171.7s
      9582      66       600  10.70%   8               10                20.00%     3959     86   4856     1823k   176.7s
      9928      88       762  12.62%   8               10                20.00%     4483     85   5929     1874k   181.7s
     10328     106       954  13.17%   8               10                20.00%     4786     66   7249     1928k   186.8s
     10487     112      1030  13.49%   8               10                20.00%     4896     88   8501     1995k   191.8s
     10648     119      1106  14.00%   8               10                20.00%     5254     97   9551     2069k   196.8s
     11032     141      1288  14.44%   8               10                20.00%     4664     84   9128     2124k   201.9s
     11388     154      1459  14.46%   8               10                20.00%     4818     70   9481     2175k   206.9s
     11745     175      1627  15.00%   8               10                20.00%     5074     73   9767     2227k   211.9s
     12042     184      1771  15.00%   8               10                20.00%     4938     93   9290     2276k   217.4s
     12168     188      1833  15.01%   8               10                20.00%     5155     80   9343     2340k   222.8s
     12211     188      1854  15.01%   8               10                20.00%     5391     80   9915     2401k   228.1s
     12329     191      1910  15.08%   8               10                20.00%     5535     89   9931     2451k   233.1s
     12599     212      2034  15.15%   8               10                20.00%     5693    106   9325     2491k   238.1s
     12961     239      2203  15.15%   8               10                20.00%     4938     90   9568     2537k   243.1s
     13098     246      2268  15.16%   8               10                20.00%     5377    105   8163     2579k   248.1s
     13269     254      2350  15.16%   8               10                20.00%     5277    116   8515     2618k   253.2s
     13511     261      2467  15.16%   8               10                20.00%     4879     98   9121     2658k   258.2s
     13655     269      2534  15.16%   8               10                20.00%     4839    112   9516     2770k   277.7s
     13956     285      2677  15.16%   8               10                20.00%     4689     88   9695     2817k   282.8s

        Nodes      |    B&B Tree     |            Objective Bounds              |  Dynamic Constraints |       Work      
     Proc. InQueue |  Leaves   Expl. | BestBound       BestSol              Gap |   Cuts   InLp Confl. | LpIters     Time

     14264     302      2823  15.16%   8               10                20.00%     4430    101   9891     2860k   287.8s
     14562     318      2963  15.16%   8               10                20.00%     4385    117   9694     2903k   293.1s
     14856     335      3105  15.17%   8               10                20.00%     4369     81   9863     2947k   298.1s

Solving report
  Status            Time limit reached
  Primal bound      10
  Dual bound        8
  Gap               20% (tolerance: 0.01%)
  Solution status   feasible
                    10 (objective)
                    0 (bound viol.)
                    1.64313007645e-14 (int. viol.)
                    0 (row viol.)
  Timing            300.00 (total)
                    0.49 (presolve)
                    0.00 (postsolve)
  Nodes             14960
  LP iterations     2963155 (total)
                    645556 (strong br.)
                    57173 (separation)
                    219496 (heuristics)
ARGS = ["1", "300", "selected_instances/05.txt"]
instance = (40, 468, [[9, 20, 10, 2, 38, 39, 21, 5, 11, 40, 4, 34, 6, 30, 15, 26, 32, 23, 12, 19, 14, 16, 37, 18, 8, 24, 25, 7, 35, 36], [17, 26, 32, 1, 29, 12, 19, 16, 18, 8, 25, 7, 36, 9, 10, 38, 21, 5, 11, 40, 33, 13, 4, 22, 34, 30], [40, 33, 13, 22, 6, 15, 26, 17, 32, 29, 12, 19, 14, 16, 18, 8, 24, 25, 7, 36, 9, 20, 27, 10, 21, 5], [29, 31, 19, 14, 16, 37, 18, 24, 25, 7, 35, 36, 1, 9, 20, 27, 5, 11, 40, 33, 13, 34, 2, 6, 15, 26, 17], [35, 28, 10, 27, 1, 11, 40, 33, 34, 15, 4, 2, 17, 26, 32, 23, 12, 31, 19, 14, 37, 8, 24, 25, 7, 3], [12, 31, 16, 3, 24, 8, 7, 35, 36, 28, 1, 10, 38, 21, 11, 40, 34, 4, 26, 17, 32], [24, 25, 35, 28, 20, 6, 4, 10, 38, 39, 2, 33, 22, 30, 15, 3, 17, 12, 31, 1, 19, 14, 5], [26, 6, 23, 29, 12, 31, 2, 16, 18, 24, 35, 28, 9, 20, 27, 3, 39, 40, 33, 13, 1, 5], [1, 17, 32, 29, 19, 16, 37, 18, 24, 4, 2, 8, 20, 10, 27, 38, 39, 21, 40, 3, 34, 30, 15], [26, 32, 1, 29, 12, 5, 31, 16, 7, 18, 25, 35, 36, 6, 2, 27, 9, 39, 21, 40, 33, 13, 34, 3, 15], [29, 12, 14, 16, 1, 5, 25, 28, 6, 39, 4, 2, 34, 30, 15, 26], [39, 6, 11, 2, 10, 33, 13, 22, 8, 30, 15, 17, 3, 32, 31, 19, 14, 16, 37, 24, 1, 5, 35, 28, 7, 20], [29, 3, 19, 14, 16, 12, 37, 25, 35, 36, 28, 20, 27, 38, 21, 40, 33, 4, 22, 10, 2, 8, 15, 17], [15, 17, 4, 13, 32, 11, 29, 19, 16, 18, 25, 35, 36, 28, 3, 20, 27, 12, 38, 39, 1, 22, 5, 30, 7], [14, 29, 31, 19, 16, 37, 24, 25, 36, 3, 28, 20, 12, 39, 21, 1, 5, 7, 30, 4, 13, 11, 17, 10, 9], [37, 18, 24, 25, 15, 6, 28, 13, 4, 11, 2, 10, 20, 9, 8, 14, 38, 39, 21, 40, 33, 34, 3, 30, 12, 26, 17, 1, 32, 23, 19], [31, 2, 19, 9, 37, 18, 14, 25, 35, 36, 28, 27, 3, 38, 39, 21, 12, 40, 33, 34, 5, 30, 7, 16, 15, 32, 6, 13, 4, 23, 29], [37, 16, 25, 17, 35, 4, 20, 2, 10, 27, 9, 8, 14, 30, 3, 1, 23, 29, 31, 19], [17, 37, 24, 15, 4, 13, 36, 2, 9, 14, 21, 3, 34, 12, 1, 5, 23, 29, 7, 18, 31, 16], [26, 1, 23, 31, 7, 18, 16, 37, 24, 25, 15, 36, 28, 13, 4, 9, 27, 8, 14, 38, 21, 40, 34, 3, 12], [22, 34, 1, 26, 16, 19, 32, 17, 15, 6, 13, 37, 24, 10, 2, 20, 9, 25, 36, 28, 38, 39, 3, 40], [28, 21, 3, 38, 39, 12, 34, 7, 26, 13, 23, 29, 2, 31, 37, 14, 24, 25, 36], [38, 39, 20, 33, 8, 30, 26, 32, 1, 37, 22, 5, 36, 28, 18, 16, 19, 17], [7, 16, 19, 15, 6, 4, 31, 20, 9, 37, 8, 25, 35, 36, 21, 3, 38, 39, 12, 40, 33, 1, 22, 5], [37, 7, 18, 16, 35, 36, 17, 15, 13, 4, 11, 38, 39, 2, 10, 20, 40, 24, 14, 21, 3, 26, 32, 29, 1, 22, 5], [2, 10, 20, 38, 39, 8, 33, 34, 21, 3, 23, 1, 22, 29, 5, 25, 37, 16, 35, 36, 6, 4, 11], [32, 29, 5, 31, 37, 18, 17, 35, 36, 28, 4, 13, 10, 20, 9, 39, 8, 14, 33, 34, 3], [22, 5, 36, 7, 16, 17, 15, 38, 6, 13, 11, 27, 33, 20, 8, 14, 21, 32, 12, 23, 37], [15, 4, 13, 11, 2, 10, 27, 35, 9, 8, 14, 39, 3, 33, 34, 26, 22, 25, 18, 19, 31, 17], [31, 36, 12, 23, 1, 38, 39, 40, 7, 18, 33, 16, 17, 34, 15, 11, 2, 9, 14], [17, 15, 37, 30, 6, 4, 35, 36, 10, 27, 20, 8, 24, 38, 33, 12, 22, 5, 7, 18, 19, 29], [27, 10, 2, 9, 14, 21, 37, 3, 35, 36, 12, 23, 1, 5, 38, 28, 25, 16, 17, 6], [3, 12, 23, 38, 26, 40, 5, 34, 28, 7, 16, 31, 29, 17, 30, 13, 4, 2, 10, 27, 24, 8, 37, 36], [21, 26, 1, 22, 33, 5, 16, 19, 29, 17, 30, 6, 4, 11, 2, 27, 10, 20, 9, 38, 40], [5, 40, 7, 25, 18, 31, 29, 17, 6, 4, 13, 27, 10, 24, 8, 14, 32, 12, 26, 1, 38], [28, 25, 19, 31, 17, 15, 30, 6, 13, 38, 4, 2, 27, 10, 20, 24, 14, 32, 21, 3, 23, 26, 1, 22, 33], [25, 18, 16, 19, 31, 17, 15, 4, 13, 27, 20, 9, 24, 32, 21, 12, 23, 26, 1, 22, 33, 5, 28], [23, 26, 1, 22, 33, 28, 36, 7, 25, 16, 31, 17, 30, 6, 13, 2, 20, 9, 24, 14, 32, 34, 21, 39, 35, 40], [12, 23, 26, 22, 1, 7, 25, 16, 29, 17, 15, 30, 11, 27, 10, 9, 24, 8, 14, 21, 38], [3, 35, 1, 33, 5, 25, 16, 17, 30, 6, 4, 13, 2, 10, 20, 9, 8, 24, 34, 21, 38]], 32)
round.(value.(model[:x])) = [1.0 0.0 0.0 0.0 0.0 0.0 0.0 0.0 0.0 0.0 0.0 0.0 0.0 0.0 0.0 0.0 0.0 0.0 0.0 0.0 0.0 0.0 0.0 0.0 0.0 0.0 0.0 0.0 0.0 0.0 0.0 0.0; 0.0 0.0 0.0 0.0 1.0 0.0 0.0 -0.0 0.0 -0.0 0.0 0.0 0.0 0.0 0.0 0.0 0.0 0.0 0.0 0.0 0.0 0.0 0.0 0.0 0.0 0.0 0.0 0.0 0.0 0.0 0.0 0.0; -0.0 0.0 0.0 0.0 1.0 -0.0 -0.0 0.0 0.0 0.0 0.0 0.0 0.0 0.0 0.0 0.0 0.0 0.0 0.0 0.0 0.0 0.0 0.0 0.0 0.0 0.0 0.0 0.0 0.0 0.0 0.0 0.0; 0.0 0.0 0.0 0.0 0.0 0.0 1.0 0.0 -0.0 0.0 0.0 0.0 0.0 0.0 0.0 0.0 0.0 0.0 0.0 0.0 0.0 0.0 0.0 0.0 0.0 0.0 0.0 0.0 0.0 0.0 0.0 0.0; 0.0 1.0 -0.0 0.0 0.0 -0.0 0.0 0.0 0.0 0.0 0.0 0.0 0.0 0.0 0.0 0.0 0.0 0.0 0.0 0.0 0.0 0.0 0.0 0.0 0.0 0.0 0.0 0.0 0.0 0.0 0.0 0.0; 0.0 0.0 1.0 0.0 0.0 -0.0 0.0 -0.0 0.0 0.0 0.0 0.0 0.0 0.0 0.0 0.0 0.0 0.0 0.0 0.0 0.0 0.0 0.0 0.0 0.0 0.0 0.0 0.0 0.0 0.0 0.0 0.0; 0.0 0.0 -0.0 0.0 0.0 1.0 0.0 0.0 0.0 0.0 0.0 0.0 0.0 0.0 0.0 0.0 0.0 0.0 0.0 0.0 0.0 0.0 0.0 0.0 0.0 0.0 0.0 0.0 0.0 0.0 0.0 0.0; 0.0 0.0 0.0 -0.0 0.0 -0.0 0.0 1.0 0.0 0.0 0.0 0.0 0.0 0.0 0.0 0.0 0.0 0.0 0.0 0.0 0.0 0.0 0.0 0.0 0.0 0.0 0.0 0.0 0.0 0.0 0.0 0.0; 0.0 0.0 1.0 0.0 0.0 0.0 -0.0 0.0 0.0 0.0 0.0 0.0 0.0 0.0 0.0 0.0 0.0 0.0 0.0 0.0 0.0 0.0 0.0 0.0 0.0 0.0 0.0 0.0 0.0 0.0 0.0 0.0; 0.0 0.0 0.0 0.0 0.0 0.0 -0.0 -0.0 0.0 1.0 0.0 0.0 0.0 0.0 0.0 0.0 0.0 0.0 0.0 0.0 0.0 0.0 0.0 0.0 0.0 0.0 0.0 0.0 0.0 0.0 0.0 0.0; -0.0 0.0 0.0 0.0 0.0 1.0 0.0 0.0 0.0 -0.0 0.0 0.0 0.0 0.0 0.0 0.0 0.0 0.0 0.0 0.0 0.0 0.0 0.0 0.0 0.0 0.0 0.0 0.0 0.0 0.0 0.0 0.0; -0.0 -0.0 0.0 0.0 0.0 -0.0 1.0 0.0 0.0 0.0 0.0 0.0 0.0 0.0 0.0 0.0 0.0 0.0 0.0 0.0 0.0 0.0 0.0 0.0 0.0 0.0 0.0 0.0 0.0 0.0 0.0 0.0; 1.0 0.0 -0.0 0.0 0.0 0.0 0.0 0.0 0.0 -0.0 0.0 0.0 0.0 0.0 0.0 0.0 0.0 0.0 0.0 0.0 0.0 0.0 0.0 0.0 0.0 0.0 0.0 0.0 0.0 0.0 0.0 0.0; 0.0 0.0 0.0 0.0 0.0 0.0 0.0 1.0 0.0 0.0 0.0 0.0 0.0 0.0 0.0 0.0 0.0 0.0 0.0 0.0 0.0 0.0 0.0 0.0 0.0 0.0 0.0 0.0 0.0 0.0 0.0 0.0; 0.0 0.0 0.0 0.0 -0.0 0.0 0.0 0.0 1.0 0.0 0.0 0.0 0.0 0.0 0.0 0.0 0.0 0.0 0.0 0.0 0.0 0.0 0.0 0.0 0.0 0.0 0.0 0.0 0.0 0.0 0.0 0.0; 0.0 1.0 0.0 0.0 -0.0 0.0 0.0 0.0 0.0 0.0 0.0 0.0 0.0 0.0 0.0 0.0 0.0 0.0 0.0 0.0 0.0 0.0 0.0 0.0 0.0 0.0 0.0 0.0 0.0 0.0 0.0 0.0; -0.0 -0.0 0.0 0.0 -0.0 0.0 0.0 0.0 0.0 1.0 0.0 0.0 0.0 0.0 0.0 0.0 0.0 0.0 0.0 0.0 0.0 0.0 0.0 0.0 0.0 0.0 0.0 0.0 0.0 0.0 0.0 0.0; 0.0 0.0 -0.0 0.0 0.0 -0.0 0.0 -0.0 1.0 0.0 0.0 0.0 0.0 0.0 0.0 0.0 0.0 0.0 0.0 0.0 0.0 0.0 0.0 0.0 0.0 0.0 0.0 0.0 0.0 0.0 0.0 0.0; 0.0 0.0 -0.0 1.0 0.0 0.0 0.0 0.0 0.0 0.0 0.0 0.0 0.0 0.0 0.0 0.0 0.0 0.0 0.0 0.0 0.0 0.0 0.0 0.0 0.0 0.0 0.0 0.0 0.0 0.0 0.0 0.0; -0.0 0.0 0.0 1.0 -0.0 0.0 0.0 0.0 0.0 -0.0 0.0 0.0 0.0 0.0 0.0 0.0 0.0 0.0 0.0 0.0 0.0 0.0 0.0 0.0 0.0 0.0 0.0 0.0 0.0 0.0 0.0 0.0; 0.0 0.0 0.0 0.0 0.0 1.0 -0.0 -0.0 0.0 -0.0 0.0 0.0 0.0 0.0 0.0 0.0 0.0 0.0 0.0 0.0 0.0 0.0 0.0 0.0 0.0 0.0 0.0 0.0 0.0 0.0 0.0 0.0; -0.0 -0.0 -0.0 1.0 0.0 0.0 0.0 0.0 -0.0 0.0 0.0 0.0 0.0 0.0 0.0 0.0 0.0 0.0 0.0 0.0 0.0 0.0 0.0 0.0 0.0 0.0 0.0 0.0 0.0 0.0 0.0 0.0; 0.0 0.0 0.0 0.0 0.0 1.0 -0.0 0.0 -0.0 -0.0 0.0 0.0 0.0 0.0 0.0 0.0 0.0 0.0 0.0 0.0 0.0 0.0 0.0 0.0 0.0 0.0 0.0 0.0 0.0 0.0 0.0 0.0; 0.0 0.0 0.0 0.0 0.0 0.0 0.0 -0.0 -0.0 1.0 0.0 0.0 0.0 0.0 0.0 0.0 0.0 0.0 0.0 0.0 0.0 0.0 0.0 0.0 0.0 0.0 0.0 0.0 0.0 0.0 0.0 0.0; -0.0 0.0 1.0 0.0 0.0 -0.0 0.0 0.0 0.0 0.0 0.0 0.0 0.0 0.0 0.0 0.0 0.0 0.0 0.0 0.0 0.0 0.0 0.0 0.0 0.0 0.0 0.0 0.0 0.0 0.0 0.0 0.0; 0.0 0.0 -0.0 -0.0 0.0 0.0 0.0 0.0 1.0 -0.0 0.0 0.0 0.0 0.0 0.0 0.0 0.0 0.0 0.0 0.0 0.0 0.0 0.0 0.0 0.0 0.0 0.0 0.0 0.0 0.0 0.0 0.0; 0.0 0.0 0.0 0.0 0.0 1.0 0.0 0.0 -0.0 0.0 0.0 0.0 0.0 0.0 0.0 0.0 0.0 0.0 0.0 0.0 0.0 0.0 0.0 0.0 0.0 0.0 0.0 0.0 0.0 0.0 0.0 0.0; 0.0 0.0 -0.0 -0.0 1.0 0.0 0.0 -0.0 -0.0 -0.0 0.0 0.0 0.0 0.0 0.0 0.0 0.0 0.0 0.0 0.0 0.0 0.0 0.0 0.0 0.0 0.0 0.0 0.0 0.0 0.0 0.0 0.0; 0.0 1.0 0.0 0.0 0.0 -0.0 0.0 0.0 0.0 -0.0 0.0 0.0 0.0 0.0 0.0 0.0 0.0 0.0 0.0 0.0 0.0 0.0 0.0 0.0 0.0 0.0 0.0 0.0 0.0 0.0 0.0 0.0; 0.0 0.0 0.0 1.0 0.0 0.0 0.0 0.0 0.0 0.0 0.0 0.0 0.0 0.0 0.0 0.0 0.0 0.0 0.0 0.0 0.0 0.0 0.0 0.0 0.0 0.0 0.0 0.0 0.0 0.0 0.0 0.0; 1.0 0.0 -0.0 0.0 0.0 -0.0 0.0 0.0 0.0 -0.0 0.0 0.0 0.0 0.0 0.0 0.0 0.0 0.0 0.0 0.0 0.0 0.0 0.0 0.0 0.0 0.0 0.0 0.0 0.0 0.0 0.0 0.0; 0.0 0.0 0.0 1.0 0.0 0.0 -0.0 0.0 0.0 0.0 0.0 0.0 0.0 0.0 0.0 0.0 0.0 0.0 0.0 0.0 0.0 0.0 0.0 0.0 0.0 0.0 0.0 0.0 0.0 0.0 0.0 0.0; 0.0 0.0 1.0 -0.0 -0.0 0.0 0.0 -0.0 0.0 0.0 0.0 0.0 0.0 0.0 0.0 0.0 0.0 0.0 0.0 0.0 0.0 0.0 0.0 0.0 0.0 0.0 0.0 0.0 0.0 0.0 0.0 0.0; 0.0 0.0 -0.0 0.0 -0.0 -0.0 0.0 1.0 0.0 -0.0 0.0 0.0 0.0 0.0 0.0 0.0 0.0 0.0 0.0 0.0 0.0 0.0 0.0 0.0 0.0 0.0 0.0 0.0 0.0 0.0 0.0 0.0; 0.0 0.0 0.0 0.0 1.0 0.0 0.0 0.0 0.0 0.0 0.0 0.0 0.0 0.0 0.0 0.0 0.0 0.0 0.0 0.0 0.0 0.0 0.0 0.0 0.0 0.0 0.0 0.0 0.0 0.0 0.0 0.0; 0.0 1.0 0.0 0.0 -0.0 0.0 0.0 0.0 0.0 0.0 0.0 0.0 0.0 0.0 0.0 0.0 0.0 0.0 0.0 0.0 0.0 0.0 0.0 0.0 0.0 0.0 0.0 0.0 0.0 0.0 0.0 0.0; 0.0 0.0 0.0 0.0 0.0 0.0 0.0 1.0 0.0 0.0 0.0 0.0 0.0 0.0 0.0 0.0 0.0 0.0 0.0 0.0 0.0 0.0 0.0 0.0 0.0 0.0 0.0 0.0 0.0 0.0 0.0 0.0; 0.0 0.0 0.0 0.0 0.0 -0.0 1.0 -0.0 0.0 0.0 0.0 0.0 0.0 0.0 0.0 0.0 0.0 0.0 0.0 0.0 0.0 0.0 0.0 0.0 0.0 0.0 0.0 0.0 0.0 0.0 0.0 0.0; 0.0 0.0 0.0 0.0 1.0 0.0 -0.0 0.0 -0.0 0.0 0.0 0.0 0.0 0.0 0.0 0.0 0.0 0.0 0.0 0.0 0.0 0.0 0.0 0.0 0.0 0.0 0.0 0.0 0.0 0.0 0.0 0.0; 0.0 0.0 0.0 0.0 -0.0 0.0 0.0 0.0 1.0 0.0 0.0 0.0 0.0 0.0 0.0 0.0 0.0 0.0 0.0 0.0 0.0 0.0 0.0 0.0 0.0 0.0 0.0 0.0 0.0 0.0 0.0 0.0]
round.(value.(model[:y])) = [1.0, 1.0, 1.0, 1.0, 1.0, 1.0, 1.0, 1.0, 1.0, 1.0, 0.0, 0.0, 0.0, 0.0, 0.0, 0.0, 0.0, 0.0, 0.0, 0.0, 0.0, 0.0, 0.0, 0.0, 0.0, 0.0, 0.0, 0.0, 0.0, 0.0, 0.0, 0.0]
(n, m, A) = (40, 468, [[9, 20, 10, 2, 38, 39, 21, 5, 11, 40, 4, 34, 6, 30, 15, 26, 32, 23, 12, 19, 14, 16, 37, 18, 8, 24, 25, 7, 35, 36], [17, 26, 32, 1, 29, 12, 19, 16, 18, 8, 25, 7, 36, 9, 10, 38, 21, 5, 11, 40, 33, 13, 4, 22, 34, 30], [40, 33, 13, 22, 6, 15, 26, 17, 32, 29, 12, 19, 14, 16, 18, 8, 24, 25, 7, 36, 9, 20, 27, 10, 21, 5], [29, 31, 19, 14, 16, 37, 18, 24, 25, 7, 35, 36, 1, 9, 20, 27, 5, 11, 40, 33, 13, 34, 2, 6, 15, 26, 17], [35, 28, 10, 27, 1, 11, 40, 33, 34, 15, 4, 2, 17, 26, 32, 23, 12, 31, 19, 14, 37, 8, 24, 25, 7, 3], [12, 31, 16, 3, 24, 8, 7, 35, 36, 28, 1, 10, 38, 21, 11, 40, 34, 4, 26, 17, 32], [24, 25, 35, 28, 20, 6, 4, 10, 38, 39, 2, 33, 22, 30, 15, 3, 17, 12, 31, 1, 19, 14, 5], [26, 6, 23, 29, 12, 31, 2, 16, 18, 24, 35, 28, 9, 20, 27, 3, 39, 40, 33, 13, 1, 5], [1, 17, 32, 29, 19, 16, 37, 18, 24, 4, 2, 8, 20, 10, 27, 38, 39, 21, 40, 3, 34, 30, 15], [26, 32, 1, 29, 12, 5, 31, 16, 7, 18, 25, 35, 36, 6, 2, 27, 9, 39, 21, 40, 33, 13, 34, 3, 15], [29, 12, 14, 16, 1, 5, 25, 28, 6, 39, 4, 2, 34, 30, 15, 26], [39, 6, 11, 2, 10, 33, 13, 22, 8, 30, 15, 17, 3, 32, 31, 19, 14, 16, 37, 24, 1, 5, 35, 28, 7, 20], [29, 3, 19, 14, 16, 12, 37, 25, 35, 36, 28, 20, 27, 38, 21, 40, 33, 4, 22, 10, 2, 8, 15, 17], [15, 17, 4, 13, 32, 11, 29, 19, 16, 18, 25, 35, 36, 28, 3, 20, 27, 12, 38, 39, 1, 22, 5, 30, 7], [14, 29, 31, 19, 16, 37, 24, 25, 36, 3, 28, 20, 12, 39, 21, 1, 5, 7, 30, 4, 13, 11, 17, 10, 9], [37, 18, 24, 25, 15, 6, 28, 13, 4, 11, 2, 10, 20, 9, 8, 14, 38, 39, 21, 40, 33, 34, 3, 30, 12, 26, 17, 1, 32, 23, 19], [31, 2, 19, 9, 37, 18, 14, 25, 35, 36, 28, 27, 3, 38, 39, 21, 12, 40, 33, 34, 5, 30, 7, 16, 15, 32, 6, 13, 4, 23, 29], [37, 16, 25, 17, 35, 4, 20, 2, 10, 27, 9, 8, 14, 30, 3, 1, 23, 29, 31, 19], [17, 37, 24, 15, 4, 13, 36, 2, 9, 14, 21, 3, 34, 12, 1, 5, 23, 29, 7, 18, 31, 16], [26, 1, 23, 31, 7, 18, 16, 37, 24, 25, 15, 36, 28, 13, 4, 9, 27, 8, 14, 38, 21, 40, 34, 3, 12], [22, 34, 1, 26, 16, 19, 32, 17, 15, 6, 13, 37, 24, 10, 2, 20, 9, 25, 36, 28, 38, 39, 3, 40], [28, 21, 3, 38, 39, 12, 34, 7, 26, 13, 23, 29, 2, 31, 37, 14, 24, 25, 36], [38, 39, 20, 33, 8, 30, 26, 32, 1, 37, 22, 5, 36, 28, 18, 16, 19, 17], [7, 16, 19, 15, 6, 4, 31, 20, 9, 37, 8, 25, 35, 36, 21, 3, 38, 39, 12, 40, 33, 1, 22, 5], [37, 7, 18, 16, 35, 36, 17, 15, 13, 4, 11, 38, 39, 2, 10, 20, 40, 24, 14, 21, 3, 26, 32, 29, 1, 22, 5], [2, 10, 20, 38, 39, 8, 33, 34, 21, 3, 23, 1, 22, 29, 5, 25, 37, 16, 35, 36, 6, 4, 11], [32, 29, 5, 31, 37, 18, 17, 35, 36, 28, 4, 13, 10, 20, 9, 39, 8, 14, 33, 34, 3], [22, 5, 36, 7, 16, 17, 15, 38, 6, 13, 11, 27, 33, 20, 8, 14, 21, 32, 12, 23, 37], [15, 4, 13, 11, 2, 10, 27, 35, 9, 8, 14, 39, 3, 33, 34, 26, 22, 25, 18, 19, 31, 17], [31, 36, 12, 23, 1, 38, 39, 40, 7, 18, 33, 16, 17, 34, 15, 11, 2, 9, 14], [17, 15, 37, 30, 6, 4, 35, 36, 10, 27, 20, 8, 24, 38, 33, 12, 22, 5, 7, 18, 19, 29], [27, 10, 2, 9, 14, 21, 37, 3, 35, 36, 12, 23, 1, 5, 38, 28, 25, 16, 17, 6], [3, 12, 23, 38, 26, 40, 5, 34, 28, 7, 16, 31, 29, 17, 30, 13, 4, 2, 10, 27, 24, 8, 37, 36], [21, 26, 1, 22, 33, 5, 16, 19, 29, 17, 30, 6, 4, 11, 2, 27, 10, 20, 9, 38, 40], [5, 40, 7, 25, 18, 31, 29, 17, 6, 4, 13, 27, 10, 24, 8, 14, 32, 12, 26, 1, 38], [28, 25, 19, 31, 17, 15, 30, 6, 13, 38, 4, 2, 27, 10, 20, 24, 14, 32, 21, 3, 23, 26, 1, 22, 33], [25, 18, 16, 19, 31, 17, 15, 4, 13, 27, 20, 9, 24, 32, 21, 12, 23, 26, 1, 22, 33, 5, 28], [23, 26, 1, 22, 33, 28, 36, 7, 25, 16, 31, 17, 30, 6, 13, 2, 20, 9, 24, 14, 32, 34, 21, 39, 35, 40], [12, 23, 26, 22, 1, 7, 25, 16, 29, 17, 15, 30, 11, 27, 10, 9, 24, 8, 14, 21, 38], [3, 35, 1, 33, 5, 25, 16, 17, 30, 6, 4, 13, 2, 10, 20, 9, 8, 24, 34, 21, 38]])
 1 (1), 2 (5), 3 (5), 4 (7), 5 (2), 6 (3), 7 (6), 8 (8), 9 (3), 10 (10), 11 (6), 12 (7), 13 (1), 14 (8), 15 (9), 16 (2), 17 (10), 18 (9), 19 (4), 20 (4), 21 (6), 22 (4), 23 (6), 24 (10), 25 (3), 26 (9), 27 (6), 28 (5), 29 (2), 30 (4), 31 (1), 32 (4), 33 (3), 34 (8), 35 (5), 36 (2), 37 (8), 38 (7), 39 (5), 40 (9),
objective_bound(model) = 8.0
objective_value(model) = 10.0
